7,6	0,0	8,8	19,3	0,0	0,0	0,0	0,0	0,0	8,8
8,3	7,6	0,0	19,0	17,0	0,0	0,0	8,5	0,0	0,0
0,0	0,0	15,7	0,0	5,2	17,8	0,0	0,0	11,5	0,0
5,9	0,0	17,5	0,0	0,0	0,0	11,0	0,0	0,0	0,0
0,0	9,4	0,0	17,1	8,1	0,0	0,0	14,5	0,0	0,0
0,0	14,1	9,9	0,0	16,8	12,7	0,0	0,0	16,3	0,0
0,0	5,8	0,0	9,5	0,0	0,0	15,3	0,0	0,0	6,7
10,8	0,0	9,3	0,0	0,0	0,0	0,0	0,0	0,0	15,6
0,0	11,2	0,0	11,3	16,4	0,0	0,0	11,9	0,0	0,0
0,0	0,0	5,6	0,0	0,0	16,5	11,9	0,0	0,0	19,4
									
2,9	3,1	3,9	4,4	3,7	4,3	3,5	4,0	4,7	3,2
